3236 2526 100 99 98 97 96 95 94 91 90 88 87 86 84 82 81 79 78 77 76 75 74 73 72 71 68 67 64 63 59 58 57 56 55 54 53 52 51 50 49 48 43 42 40 39 38 37 35 34 32 31 30 28 27 26 25 24 23 21 20 16 15 14 13 10 9 8 7 6 5 3 2 